NAME: VRP
TYPE: TSP
COMMENT: NA
DIMENSION: 25
EDGE_WEIGHT_TYPE : EUC
ARISTAS: 80
NODE_COORD_SECTION
1 2 4.0 0.0
1 6 3.0 0.0
2 1 4.0 0.0
2 7 6.0 0.0
2 3 8.0 0.0
3 2 8.0 0.0
3 8 15.0 4.0
3 4 5.0 4.0
4 3 5.0 4.0
4 9 5.0 4.0
4 5 25.0 4.0
5 4 25.0 4.0
5 10 15.0 4.0
6 1 3.0 0.0
6 7 1.0 0.0
6 11 5.0 0.0
7 2 6.0 0.0
7 6 1.0 0.0
7 8 4.0 0.0
7 12 2.0 0.0
8 3 15.0 4.0
8 7 4.0 0.0
8 13 5.0 4.0
8 9 15.0 4.0
9 4 5.0 4.0
9 8 15.0 4.0
9 14 30.0 4.0
9 10 10.0 4.0
10 5 15.0 4.0
10 9 10.0 4.0
10 15 25.0 4.0
11 6 5.0 0.0
11 12 42.0 2.0
11 16 51.0 2.0
12 7 2.0 0.0
12 11 42.0 2.0
12 17 66.0 2.0
12 13 69.0 2.0
13 8 5.0 4.0
13 12 69.0 2.0
13 18 42.0 2.0
13 14 51.0 2.0
14 9 30.0 4.0
14 13 51.0 2.0
14 19 10.0 4.0
14 15 5.0 4.0
15 10 25.0 4.0
15 14 5.0 4.0
15 20 10.0 4.0
16 11 51.0 2.0
16 17 45.0 2.0
16 21 60.0 2.0
17 12 66.0 2.0
17 16 45.0 2.0
17 22 75.0 2.0
17 18 22.0 0.0
18 13 42.0 2.0
18 17 22.0 0.0
18 23 54.0 2.0
18 19 57.0 2.0
19 14 10.0 4.0
19 18 57.0 2.0
19 24 63.0 2.0
19 20 69.0 2.0
20 15 10.0 4.0
20 19 69.0 2.0
20 25 63.0 2.0
21 16 60.0 2.0
21 22 48.0 2.0
22 17 75.0 2.0
22 21 48.0 2.0
22 23 17.0 0.0
23 18 54.0 2.0
23 22 17.0 0.0
23 24 30.0 2.0
24 19 63.0 2.0
24 23 30.0 2.0
24 25 51.0 2.0
25 20 63.0 2.0
25 24 51.0 2.0

VEHICLES: 1
6 18